c CNF file corresponding to a (partial) station packing problem.
p cnf 1933 229
1917 1918 1919 1920 1921 1922 1923 1924 1925 1926 1927 1928 1929 1930 1931 1932 1933 0
-1917 -1918 0
-1917 -1919 0
-1917 -1920 0
-1917 -1921 0
-1917 -1922 0
-1917 -1923 0
-1917 -1924 0
-1917 -1925 0
-1917 -1926 0
-1917 -1927 0
-1917 -1928 0
-1917 -1929 0
-1917 -1930 0
-1917 -1931 0
-1917 -1932 0
-1917 -1933 0
-1918 -1919 0
-1918 -1920 0
-1918 -1921 0
-1918 -1922 0
-1918 -1923 0
-1918 -1924 0
-1918 -1925 0
-1918 -1926 0
-1918 -1927 0
-1918 -1928 0
-1918 -1929 0
-1918 -1930 0
-1918 -1931 0
-1918 -1932 0
-1918 -1933 0
-1919 -1920 0
-1919 -1921 0
-1919 -1922 0
-1919 -1923 0
-1919 -1924 0
-1919 -1925 0
-1919 -1926 0
-1919 -1927 0
-1919 -1928 0
-1919 -1929 0
-1919 -1930 0
-1919 -1931 0
-1919 -1932 0
-1919 -1933 0
-1920 -1921 0
-1920 -1922 0
-1920 -1923 0
-1920 -1924 0
-1920 -1925 0
-1920 -1926 0
-1920 -1927 0
-1920 -1928 0
-1920 -1929 0
-1920 -1930 0
-1920 -1931 0
-1920 -1932 0
-1920 -1933 0
-1921 -1922 0
-1921 -1923 0
-1921 -1924 0
-1921 -1925 0
-1921 -1926 0
-1921 -1927 0
-1921 -1928 0
-1921 -1929 0
-1921 -1930 0
-1921 -1931 0
-1921 -1932 0
-1921 -1933 0
-1922 -1923 0
-1922 -1924 0
-1922 -1925 0
-1922 -1926 0
-1922 -1927 0
-1922 -1928 0
-1922 -1929 0
-1922 -1930 0
-1922 -1931 0
-1922 -1932 0
-1922 -1933 0
-1923 -1924 0
-1923 -1925 0
-1923 -1926 0
-1923 -1927 0
-1923 -1928 0
-1923 -1929 0
-1923 -1930 0
-1923 -1931 0
-1923 -1932 0
-1923 -1933 0
-1924 -1925 0
-1924 -1926 0
-1924 -1927 0
-1924 -1928 0
-1924 -1929 0
-1924 -1930 0
-1924 -1931 0
-1924 -1932 0
-1924 -1933 0
-1925 -1926 0
-1925 -1927 0
-1925 -1928 0
-1925 -1929 0
-1925 -1930 0
-1925 -1931 0
-1925 -1932 0
-1925 -1933 0
-1926 -1927 0
-1926 -1928 0
-1926 -1929 0
-1926 -1930 0
-1926 -1931 0
-1926 -1932 0
-1926 -1933 0
-1927 -1928 0
-1927 -1929 0
-1927 -1930 0
-1927 -1931 0
-1927 -1932 0
-1927 -1933 0
-1928 -1929 0
-1928 -1930 0
-1928 -1931 0
-1928 -1932 0
-1928 -1933 0
-1929 -1930 0
-1929 -1931 0
-1929 -1932 0
-1929 -1933 0
-1930 -1931 0
-1930 -1932 0
-1930 -1933 0
-1931 -1932 0
-1931 -1933 0
-1932 -1933 0
1 2 3 4 5 6 7 8 9 10 11 12 13 14 0
-1 -2 0
-1 -3 0
-1 -4 0
-1 -5 0
-1 -6 0
-1 -7 0
-1 -8 0
-1 -9 0
-1 -10 0
-1 -11 0
-1 -12 0
-1 -13 0
-1 -14 0
-2 -3 0
-2 -4 0
-2 -5 0
-2 -6 0
-2 -7 0
-2 -8 0
-2 -9 0
-2 -10 0
-2 -11 0
-2 -12 0
-2 -13 0
-2 -14 0
-3 -4 0
-3 -5 0
-3 -6 0
-3 -7 0
-3 -8 0
-3 -9 0
-3 -10 0
-3 -11 0
-3 -12 0
-3 -13 0
-3 -14 0
-4 -5 0
-4 -6 0
-4 -7 0
-4 -8 0
-4 -9 0
-4 -10 0
-4 -11 0
-4 -12 0
-4 -13 0
-4 -14 0
-5 -6 0
-5 -7 0
-5 -8 0
-5 -9 0
-5 -10 0
-5 -11 0
-5 -12 0
-5 -13 0
-5 -14 0
-6 -7 0
-6 -8 0
-6 -9 0
-6 -10 0
-6 -11 0
-6 -12 0
-6 -13 0
-6 -14 0
-7 -8 0
-7 -9 0
-7 -10 0
-7 -11 0
-7 -12 0
-7 -13 0
-7 -14 0
-8 -9 0
-8 -10 0
-8 -11 0
-8 -12 0
-8 -13 0
-8 -14 0
-9 -10 0
-9 -11 0
-9 -12 0
-9 -13 0
-9 -14 0
-10 -11 0
-10 -12 0
-10 -13 0
-10 -14 0
-11 -12 0
-11 -13 0
-11 -14 0
-12 -13 0
-12 -14 0
-13 -14 0
